problems/csplib-prob015/SchursLemma-models/noch/O2/lingeling/model_1_3-5-14-solution000001.eprime-solution
language ESSENCE' 1.0

letting boxes_PartitionAsSet_ExplicitR5_ExplicitVarSizeWithMarker_Marker be [2, 2, 3, 3, 4; int(1..5)]
letting boxes_PartitionAsSet_ExplicitR5_ExplicitVarSizeWithMarker_Values be
        [[3, 4, 1, 1, 1, 1, 1, 1, 1, 1, 1, 1, 1, 1; int(1..14)], [5, 9, 1, 1, 1, 1, 1, 1, 1, 1, 1, 1, 1, 1; int(1..14)],
         [1, 2, 10, 1, 1, 1, 1, 1, 1, 1, 1, 1, 1, 1; int(1..14)],
         [12, 13, 14, 1, 1, 1, 1, 1, 1, 1, 1, 1, 1, 1; int(1..14)],
         [6, 7, 8, 11, 1, 1, 1, 1, 1, 1, 1, 1, 1, 1; int(1..14)]; int(1..5)]
