problems/csplib-prob015/SchursLemma-models/noch/O2/lingeling/model_1_3-5-14-solution000001.solution
language Essence 1.3

letting boxes be partition({1, 2, 10}, {3, 4}, {5, 9}, {6, 7, 8, 11}, {12, 13, 14})
